NAME           C:\Bruker\Hvattum\knapsack\Problems\class4\100-10-03.mps
ROWS
 N  OBJ
 L  CONSTR1
 L  CONSTR2
 L  CONSTR3
 L  CONSTR4
 L  CONSTR5
 L  CONSTR6
 L  CONSTR7
 L  CONSTR8
 L  CONSTR9
 L  CONSTR10
COLUMNS
    INT0001   'MARKER'  'INTORG'
    X1        OBJ       793
    X1        CONSTR1   292
    X1        CONSTR2   414
    X1        CONSTR3   353
    X1        CONSTR4   110
    X1        CONSTR5   463
    X1        CONSTR6   620
    X1        CONSTR7   281
    X1        CONSTR8   749
    X1        CONSTR9   202
    X1        CONSTR10  395
    X2        OBJ       756
    X2        CONSTR1   819
    X2        CONSTR2   271
    X2        CONSTR3   346
    X2        CONSTR4   33
    X2        CONSTR5   800
    X2        CONSTR6   22
    X2        CONSTR7   462
    X2        CONSTR8   807
    X2        CONSTR9   122
    X2        CONSTR10  933
    X3        OBJ       923
    X3        CONSTR1   468
    X3        CONSTR2   673
    X3        CONSTR3   187
    X3        CONSTR4   870
    X3        CONSTR5   981
    X3        CONSTR6   943
    X3        CONSTR7   441
    X3        CONSTR8   1
    X3        CONSTR9   137
    X3        CONSTR10  327
    X4        OBJ       915
    X4        CONSTR1   428
    X4        CONSTR2   955
    X4        CONSTR3   109
    X4        CONSTR4   970
    X4        CONSTR5   527
    X4        CONSTR6   736
    X4        CONSTR7   173
    X4        CONSTR8   815
    X4        CONSTR9   432
    X4        CONSTR10  981
    X5        OBJ       833
    X5        CONSTR1   992
    X5        CONSTR2   697
    X5        CONSTR3   490
    X5        CONSTR4   735
    X5        CONSTR5   496
    X5        CONSTR6   104
    X5        CONSTR7   889
    X5        CONSTR8   198
    X5        CONSTR9   96
    X5        CONSTR10  500
    X6        OBJ       667
    X6        CONSTR1   241
    X6        CONSTR2   869
    X6        CONSTR3   387
    X6        CONSTR4   871
    X6        CONSTR5   260
    X6        CONSTR6   588
    X6        CONSTR7   66
    X6        CONSTR8   527
    X6        CONSTR9   902
    X6        CONSTR10  233
    X7        OBJ       701
    X7        CONSTR1   417
    X7        CONSTR2   290
    X7        CONSTR3   578
    X7        CONSTR4   507
    X7        CONSTR5   802
    X7        CONSTR6   906
    X7        CONSTR7   687
    X7        CONSTR8   233
    X7        CONSTR9   355
    X7        CONSTR10  175
    X8        OBJ       700
    X8        CONSTR1   939
    X8        CONSTR2   765
    X8        CONSTR3   127
    X8        CONSTR4   52
    X8        CONSTR5   671
    X8        CONSTR6   517
    X8        CONSTR7   693
    X8        CONSTR8   529
    X8        CONSTR9   432
    X8        CONSTR10  586
    X9        OBJ       311
    X9        CONSTR1   44
    X9        CONSTR2   634
    X9        CONSTR3   7
    X9        CONSTR4   735
    X9        CONSTR5   28
    X9        CONSTR6   247
    X9        CONSTR7   263
    X9        CONSTR8   260
    X9        CONSTR9   289
    X9        CONSTR10  403
    X10       OBJ       891
    X10       CONSTR1   447
    X10       CONSTR2   781
    X10       CONSTR3   221
    X10       CONSTR4   711
    X10       CONSTR5   61
    X10       CONSTR6   880
    X10       CONSTR7   846
    X10       CONSTR8   817
    X10       CONSTR9   439
    X10       CONSTR10  10
    X11       OBJ       790
    X11       CONSTR1   546
    X11       CONSTR2   514
    X11       CONSTR3   305
    X11       CONSTR4   631
    X11       CONSTR5   584
    X11       CONSTR6   710
    X11       CONSTR7   756
    X11       CONSTR8   318
    X11       CONSTR9   218
    X11       CONSTR10  773
    X12       OBJ       835
    X12       CONSTR1   134
    X12       CONSTR2   252
    X12       CONSTR3   841
    X12       CONSTR4   332
    X12       CONSTR5   715
    X12       CONSTR6   920
    X12       CONSTR7   677
    X12       CONSTR8   127
    X12       CONSTR9   98
    X12       CONSTR10  320
    X13       OBJ       569
    X13       CONSTR1   639
    X13       CONSTR2   662
    X13       CONSTR3   881
    X13       CONSTR4   326
    X13       CONSTR5   461
    X13       CONSTR6   131
    X13       CONSTR7   54
    X13       CONSTR8   47
    X13       CONSTR9   857
    X13       CONSTR10  796
    X14       OBJ       795
    X14       CONSTR1   806
    X14       CONSTR2   704
    X14       CONSTR3   183
    X14       CONSTR4   634
    X14       CONSTR5   776
    X14       CONSTR6   143
    X14       CONSTR7   732
    X14       CONSTR8   221
    X14       CONSTR9   609
    X14       CONSTR10  131
    X15       OBJ       860
    X15       CONSTR1   150
    X15       CONSTR2   205
    X15       CONSTR3   647
    X15       CONSTR4   492
    X15       CONSTR5   68
    X15       CONSTR6   410
    X15       CONSTR7   575
    X15       CONSTR8   518
    X15       CONSTR9   812
    X15       CONSTR10  197
    X16       OBJ       1091
    X16       CONSTR1   962
    X16       CONSTR2   869
    X16       CONSTR3   664
    X16       CONSTR4   358
    X16       CONSTR5   648
    X16       CONSTR6   964
    X16       CONSTR7   927
    X16       CONSTR8   427
    X16       CONSTR9   832
    X16       CONSTR10  2
    X17       OBJ       368
    X17       CONSTR1   229
    X17       CONSTR2   469
    X17       CONSTR3   646
    X17       CONSTR4   556
    X17       CONSTR5   147
    X17       CONSTR6   175
    X17       CONSTR7   86
    X17       CONSTR8   11
    X17       CONSTR9   59
    X17       CONSTR10  172
    X18       OBJ       817
    X18       CONSTR1   273
    X18       CONSTR2   501
    X18       CONSTR3   532
    X18       CONSTR4   532
    X18       CONSTR5   809
    X18       CONSTR6   720
    X18       CONSTR7   91
    X18       CONSTR8   415
    X18       CONSTR9   749
    X18       CONSTR10  499
    X19       OBJ       961
    X19       CONSTR1   457
    X19       CONSTR2   793
    X19       CONSTR3   757
    X19       CONSTR4   259
    X19       CONSTR5   547
    X19       CONSTR6   518
    X19       CONSTR7   924
    X19       CONSTR8   151
    X19       CONSTR9   810
    X19       CONSTR10  352
    X20       OBJ       711
    X20       CONSTR1   552
    X20       CONSTR2   738
    X20       CONSTR3   550
    X20       CONSTR4   852
    X20       CONSTR5   919
    X20       CONSTR6   58
    X20       CONSTR7   405
    X20       CONSTR8   679
    X20       CONSTR9   602
    X20       CONSTR10  553
    X21       OBJ       801
    X21       CONSTR1   189
    X21       CONSTR2   403
    X21       CONSTR3   316
    X21       CONSTR4   191
    X21       CONSTR5   702
    X21       CONSTR6   328
    X21       CONSTR7   658
    X21       CONSTR8   274
    X21       CONSTR9   834
    X21       CONSTR10  350
    X22       OBJ       859
    X22       CONSTR1   38
    X22       CONSTR2   305
    X22       CONSTR3   243
    X22       CONSTR4   478
    X22       CONSTR5   173
    X22       CONSTR6   729
    X22       CONSTR7   620
    X22       CONSTR8   494
    X22       CONSTR9   977
    X22       CONSTR10  774
    X23       OBJ       567
    X23       CONSTR1   277
    X23       CONSTR2   619
    X23       CONSTR3   810
    X23       CONSTR4   400
    X23       CONSTR5   267
    X23       CONSTR6   467
    X23       CONSTR7   846
    X23       CONSTR8   199
    X23       CONSTR9   636
    X23       CONSTR10  571
    X24       OBJ       939
    X24       CONSTR1   987
    X24       CONSTR2   604
    X24       CONSTR3   404
    X24       CONSTR4   813
    X24       CONSTR5   104
    X24       CONSTR6   770
    X24       CONSTR7   39
    X24       CONSTR8   810
    X24       CONSTR9   585
    X24       CONSTR10  698
    X25       OBJ       950
    X25       CONSTR1   390
    X25       CONSTR2   676
    X25       CONSTR3   982
    X25       CONSTR4   708
    X25       CONSTR5   459
    X25       CONSTR6   974
    X25       CONSTR7   976
    X25       CONSTR8   267
    X25       CONSTR9   583
    X25       CONSTR10  986
    X26       OBJ       1049
    X26       CONSTR1   978
    X26       CONSTR2   789
    X26       CONSTR3   877
    X26       CONSTR4   731
    X26       CONSTR5   910
    X26       CONSTR6   735
    X26       CONSTR7   836
    X26       CONSTR8   892
    X26       CONSTR9   246
    X26       CONSTR10  449
    X27       OBJ       791
    X27       CONSTR1   734
    X27       CONSTR2   977
    X27       CONSTR3   312
    X27       CONSTR4   742
    X27       CONSTR5   523
    X27       CONSTR6   217
    X27       CONSTR7   42
    X27       CONSTR8   603
    X27       CONSTR9   605
    X27       CONSTR10  561
    X28       OBJ       762
    X28       CONSTR1   807
    X28       CONSTR2   1
    X28       CONSTR3   894
    X28       CONSTR4   240
    X28       CONSTR5   839
    X28       CONSTR6   608
    X28       CONSTR7   217
    X28       CONSTR8   352
    X28       CONSTR9   888
    X28       CONSTR10  786
    X29       OBJ       491
    X29       CONSTR1   261
    X29       CONSTR2   777
    X29       CONSTR3   185
    X29       CONSTR4   544
    X29       CONSTR5   895
    X29       CONSTR6   774
    X29       CONSTR7   87
    X29       CONSTR8   77
    X29       CONSTR9   512
    X29       CONSTR10  402
    X30       OBJ       753
    X30       CONSTR1   833
    X30       CONSTR2   973
    X30       CONSTR3   122
    X30       CONSTR4   188
    X30       CONSTR5   826
    X30       CONSTR6   880
    X30       CONSTR7   220
    X30       CONSTR8   259
    X30       CONSTR9   352
    X30       CONSTR10  528
    X31       OBJ       835
    X31       CONSTR1   584
    X31       CONSTR2   43
    X31       CONSTR3   824
    X31       CONSTR4   348
    X31       CONSTR5   849
    X31       CONSTR6   741
    X31       CONSTR7   580
    X31       CONSTR8   21
    X31       CONSTR9   831
    X31       CONSTR10  881
    X32       OBJ       368
    X32       CONSTR1   162
    X32       CONSTR2   388
    X32       CONSTR3   770
    X32       CONSTR4   302
    X32       CONSTR5   745
    X32       CONSTR6   159
    X32       CONSTR7   309
    X32       CONSTR8   107
    X32       CONSTR9   41
    X32       CONSTR10  57
    X33       OBJ       882
    X33       CONSTR1   440
    X33       CONSTR2   813
    X33       CONSTR3   182
    X33       CONSTR4   276
    X33       CONSTR5   116
    X33       CONSTR6   669
    X33       CONSTR7   402
    X33       CONSTR8   319
    X33       CONSTR9   492
    X33       CONSTR10  236
    X34       OBJ       830
    X34       CONSTR1   64
    X34       CONSTR2   554
    X34       CONSTR3   674
    X34       CONSTR4   204
    X34       CONSTR5   666
    X34       CONSTR6   185
    X34       CONSTR7   283
    X34       CONSTR8   530
    X34       CONSTR9   792
    X34       CONSTR10  576
    X35       OBJ       809
    X35       CONSTR1   697
    X35       CONSTR2   424
    X35       CONSTR3   614
    X35       CONSTR4   356
    X35       CONSTR5   271
    X35       CONSTR6   927
    X35       CONSTR7   210
    X35       CONSTR8   244
    X35       CONSTR9   644
    X35       CONSTR10  391
    X36       OBJ       885
    X36       CONSTR1   724
    X36       CONSTR2   823
    X36       CONSTR3   431
    X36       CONSTR4   634
    X36       CONSTR5   413
    X36       CONSTR6   737
    X36       CONSTR7   588
    X36       CONSTR8   844
    X36       CONSTR9   891
    X36       CONSTR10  889
    X37       OBJ       955
    X37       CONSTR1   495
    X37       CONSTR2   814
    X37       CONSTR3   429
    X37       CONSTR4   753
    X37       CONSTR5   774
    X37       CONSTR6   660
    X37       CONSTR7   494
    X37       CONSTR8   91
    X37       CONSTR9   697
    X37       CONSTR10  14
    X38       OBJ       772
    X38       CONSTR1   323
    X38       CONSTR2   951
    X38       CONSTR3   268
    X38       CONSTR4   634
    X38       CONSTR5   331
    X38       CONSTR6   727
    X38       CONSTR7   14
    X38       CONSTR8   441
    X38       CONSTR9   665
    X38       CONSTR10  323
    X39       OBJ       909
    X39       CONSTR1   718
    X39       CONSTR2   337
    X39       CONSTR3   84
    X39       CONSTR4   488
    X39       CONSTR5   964
    X39       CONSTR6   444
    X39       CONSTR7   979
    X39       CONSTR8   547
    X39       CONSTR9   929
    X39       CONSTR10  843
    X40       OBJ       458
    X40       CONSTR1   654
    X40       CONSTR2   864
    X40       CONSTR3   52
    X40       CONSTR4   266
    X40       CONSTR5   43
    X40       CONSTR6   234
    X40       CONSTR7   276
    X40       CONSTR8   831
    X40       CONSTR9   60
    X40       CONSTR10  606
    X41       OBJ       847
    X41       CONSTR1   184
    X41       CONSTR2   588
    X41       CONSTR3   510
    X41       CONSTR4   153
    X41       CONSTR5   100
    X41       CONSTR6   278
    X41       CONSTR7   605
    X41       CONSTR8   301
    X41       CONSTR9   658
    X41       CONSTR10  309
    X42       OBJ       351
    X42       CONSTR1   5
    X42       CONSTR2   668
    X42       CONSTR3   392
    X42       CONSTR4   218
    X42       CONSTR5   631
    X42       CONSTR6   86
    X42       CONSTR7   61
    X42       CONSTR8   43
    X42       CONSTR9   540
    X42       CONSTR10  526
    X43       OBJ       748
    X43       CONSTR1   182
    X43       CONSTR2   104
    X43       CONSTR3   664
    X43       CONSTR4   579
    X43       CONSTR5   876
    X43       CONSTR6   169
    X43       CONSTR7   429
    X43       CONSTR8   146
    X43       CONSTR9   107
    X43       CONSTR10  339
    X44       OBJ       675
    X44       CONSTR1   292
    X44       CONSTR2   135
    X44       CONSTR3   215
    X44       CONSTR4   228
    X44       CONSTR5   926
    X44       CONSTR6   240
    X44       CONSTR7   719
    X44       CONSTR8   730
    X44       CONSTR9   392
    X44       CONSTR10  370
    X45       OBJ       509
    X45       CONSTR1   207
    X45       CONSTR2   515
    X45       CONSTR3   175
    X45       CONSTR4   737
    X45       CONSTR5   135
    X45       CONSTR6   514
    X45       CONSTR7   344
    X45       CONSTR8   671
    X45       CONSTR9   721
    X45       CONSTR10  108
    X46       OBJ       990
    X46       CONSTR1   370
    X46       CONSTR2   484
    X46       CONSTR3   726
    X46       CONSTR4   203
    X46       CONSTR5   809
    X46       CONSTR6   867
    X46       CONSTR7   605
    X46       CONSTR8   292
    X46       CONSTR9   315
    X46       CONSTR10  637
    X47       OBJ       489
    X47       CONSTR1   592
    X47       CONSTR2   183
    X47       CONSTR3   85
    X47       CONSTR4   768
    X47       CONSTR5   751
    X47       CONSTR6   314
    X47       CONSTR7   104
    X47       CONSTR8   876
    X47       CONSTR9   254
    X47       CONSTR10  321
    X48       OBJ       491
    X48       CONSTR1   145
    X48       CONSTR2   731
    X48       CONSTR3   650
    X48       CONSTR4   287
    X48       CONSTR5   304
    X48       CONSTR6   139
    X48       CONSTR7   177
    X48       CONSTR8   131
    X48       CONSTR9   815
    X48       CONSTR10  752
    X49       OBJ       706
    X49       CONSTR1   735
    X49       CONSTR2   272
    X49       CONSTR3   428
    X49       CONSTR4   752
    X49       CONSTR5   372
    X49       CONSTR6   345
    X49       CONSTR7   110
    X49       CONSTR8   98
    X49       CONSTR9   752
    X49       CONSTR10  997
    X50       OBJ       796
    X50       CONSTR1   86
    X50       CONSTR2   983
    X50       CONSTR3   819
    X50       CONSTR4   102
    X50       CONSTR5   474
    X50       CONSTR6   497
    X50       CONSTR7   13
    X50       CONSTR8   687
    X50       CONSTR9   536
    X50       CONSTR10  209
    X51       OBJ       785
    X51       CONSTR1   542
    X51       CONSTR2   129
    X51       CONSTR3   570
    X51       CONSTR4   622
    X51       CONSTR5   338
    X51       CONSTR6   829
    X51       CONSTR7   86
    X51       CONSTR8   981
    X51       CONSTR9   714
    X51       CONSTR10  181
    X52       OBJ       686
    X52       CONSTR1   31
    X52       CONSTR2   496
    X52       CONSTR3   917
    X52       CONSTR4   558
    X52       CONSTR5   882
    X52       CONSTR6   508
    X52       CONSTR7   384
    X52       CONSTR8   332
    X52       CONSTR9   464
    X52       CONSTR10  4
    X53       OBJ       634
    X53       CONSTR1   956
    X53       CONSTR2   333
    X53       CONSTR3   970
    X53       CONSTR4   265
    X53       CONSTR5   513
    X53       CONSTR6   335
    X53       CONSTR7   55
    X53       CONSTR8   84
    X53       CONSTR9   999
    X53       CONSTR10  8
    X54       OBJ       932
    X54       CONSTR1   204
    X54       CONSTR2   791
    X54       CONSTR3   831
    X54       CONSTR4   435
    X54       CONSTR5   646
    X54       CONSTR6   837
    X54       CONSTR7   905
    X54       CONSTR8   457
    X54       CONSTR9   651
    X54       CONSTR10  543
    X55       OBJ       555
    X55       CONSTR1   87
    X55       CONSTR2   841
    X55       CONSTR3   245
    X55       CONSTR4   982
    X55       CONSTR5   376
    X55       CONSTR6   786
    X55       CONSTR7   280
    X55       CONSTR8   417
    X55       CONSTR9   140
    X55       CONSTR10  545
    X56       OBJ       949
    X56       CONSTR1   844
    X56       CONSTR2   393
    X56       CONSTR3   983
    X56       CONSTR4   484
    X56       CONSTR5   184
    X56       CONSTR6   990
    X56       CONSTR7   441
    X56       CONSTR8   1000
    X56       CONSTR9   640
    X56       CONSTR10  524
    X57       OBJ       926
    X57       CONSTR1   684
    X57       CONSTR2   85
    X57       CONSTR3   658
    X57       CONSTR4   512
    X57       CONSTR5   314
    X57       CONSTR6   898
    X57       CONSTR7   384
    X57       CONSTR8   660
    X57       CONSTR9   501
    X57       CONSTR10  959
    X58       OBJ       932
    X58       CONSTR1   63
    X58       CONSTR2   946
    X58       CONSTR3   703
    X58       CONSTR4   68
    X58       CONSTR5   533
    X58       CONSTR6   555
    X58       CONSTR7   792
    X58       CONSTR8   746
    X58       CONSTR9   150
    X58       CONSTR10  168
    X59       OBJ       719
    X59       CONSTR1   485
    X59       CONSTR2   812
    X59       CONSTR3   445
    X59       CONSTR4   66
    X59       CONSTR5   599
    X59       CONSTR6   103
    X59       CONSTR7   967
    X59       CONSTR8   636
    X59       CONSTR9   325
    X59       CONSTR10  255
    X60       OBJ       534
    X60       CONSTR1   499
    X60       CONSTR2   925
    X60       CONSTR3   690
    X60       CONSTR4   31
    X60       CONSTR5   158
    X60       CONSTR6   719
    X60       CONSTR7   215
    X60       CONSTR8   194
    X60       CONSTR9   736
    X60       CONSTR10  281
    X61       OBJ       544
    X61       CONSTR1   80
    X61       CONSTR2   318
    X61       CONSTR3   157
    X61       CONSTR4   550
    X61       CONSTR5   921
    X61       CONSTR6   3
    X61       CONSTR7   956
    X61       CONSTR8   903
    X61       CONSTR9   111
    X61       CONSTR10  61
    X62       OBJ       999
    X62       CONSTR1   720
    X62       CONSTR2   396
    X62       CONSTR3   490
    X62       CONSTR4   270
    X62       CONSTR5   771
    X62       CONSTR6   868
    X62       CONSTR7   542
    X62       CONSTR8   937
    X62       CONSTR9   889
    X62       CONSTR10  200
    X63       OBJ       729
    X63       CONSTR1   243
    X63       CONSTR2   967
    X63       CONSTR3   713
    X63       CONSTR4   637
    X63       CONSTR5   738
    X63       CONSTR6   13
    X63       CONSTR7   703
    X63       CONSTR8   422
    X63       CONSTR9   533
    X63       CONSTR10  3
    X64       OBJ       565
    X64       CONSTR1   319
    X64       CONSTR2   987
    X64       CONSTR3   465
    X64       CONSTR4   447
    X64       CONSTR5   173
    X64       CONSTR6   941
    X64       CONSTR7   234
    X64       CONSTR8   617
    X64       CONSTR9   417
    X64       CONSTR10  212
    X65       OBJ       1073
    X65       CONSTR1   782
    X65       CONSTR2   793
    X65       CONSTR3   620
    X65       CONSTR4   572
    X65       CONSTR5   598
    X65       CONSTR6   855
    X65       CONSTR7   527
    X65       CONSTR8   632
    X65       CONSTR9   825
    X65       CONSTR10  634
    X66       OBJ       639
    X66       CONSTR1   571
    X66       CONSTR2   266
    X66       CONSTR3   918
    X66       CONSTR4   706
    X66       CONSTR5   647
    X66       CONSTR6   334
    X66       CONSTR7   832
    X66       CONSTR8   516
    X66       CONSTR9   948
    X66       CONSTR10  415
    X67       OBJ       722
    X67       CONSTR1   972
    X67       CONSTR2   631
    X67       CONSTR3   52
    X67       CONSTR4   666
    X67       CONSTR5   546
    X67       CONSTR6   564
    X67       CONSTR7   244
    X67       CONSTR8   731
    X67       CONSTR9   221
    X67       CONSTR10  503
    X68       OBJ       641
    X68       CONSTR1   72
    X68       CONSTR2   493
    X68       CONSTR3   786
    X68       CONSTR4   100
    X68       CONSTR5   219
    X68       CONSTR6   689
    X68       CONSTR7   592
    X68       CONSTR8   78
    X68       CONSTR9   113
    X68       CONSTR10  545
    X69       OBJ       527
    X69       CONSTR1   612
    X69       CONSTR2   707
    X69       CONSTR3   988
    X69       CONSTR4   129
    X69       CONSTR5   708
    X69       CONSTR6   452
    X69       CONSTR7   666
    X69       CONSTR8   233
    X69       CONSTR9   96
    X69       CONSTR10  608
    X70       OBJ       655
    X70       CONSTR1   458
    X70       CONSTR2   982
    X70       CONSTR3   297
    X70       CONSTR4   792
    X70       CONSTR5   972
    X70       CONSTR6   394
    X70       CONSTR7   387
    X70       CONSTR8   42
    X70       CONSTR9   936
    X70       CONSTR10  313
    X71       OBJ       868
    X71       CONSTR1   395
    X71       CONSTR2   949
    X71       CONSTR3   166
    X71       CONSTR4   510
    X71       CONSTR5   475
    X71       CONSTR6   615
    X71       CONSTR7   889
    X71       CONSTR8   187
    X71       CONSTR9   719
    X71       CONSTR10  930
    X72       OBJ       786
    X72       CONSTR1   19
    X72       CONSTR2   382
    X72       CONSTR3   923
    X72       CONSTR4   833
    X72       CONSTR5   614
    X72       CONSTR6   597
    X72       CONSTR7   455
    X72       CONSTR8   922
    X72       CONSTR9   547
    X72       CONSTR10  820
    X73       OBJ       558
    X73       CONSTR1   764
    X73       CONSTR2   297
    X73       CONSTR3   396
    X73       CONSTR4   860
    X73       CONSTR5   136
    X73       CONSTR6   116
    X73       CONSTR7   668
    X73       CONSTR8   28
    X73       CONSTR9   131
    X73       CONSTR10  282
    X74       OBJ       760
    X74       CONSTR1   902
    X74       CONSTR2   30
    X74       CONSTR3   831
    X74       CONSTR4   622
    X74       CONSTR5   889
    X74       CONSTR6   852
    X74       CONSTR7   219
    X74       CONSTR8   834
    X74       CONSTR9   236
    X74       CONSTR10  686
    X75       OBJ       845
    X75       CONSTR1   6
    X75       CONSTR2   14
    X75       CONSTR3   193
    X75       CONSTR4   956
    X75       CONSTR5   471
    X75       CONSTR6   615
    X75       CONSTR7   524
    X75       CONSTR8   350
    X75       CONSTR9   439
    X75       CONSTR10  336
    X76       OBJ       663
    X76       CONSTR1   187
    X76       CONSTR2   658
    X76       CONSTR3   310
    X76       CONSTR4   122
    X76       CONSTR5   775
    X76       CONSTR6   636
    X76       CONSTR7   974
    X76       CONSTR8   623
    X76       CONSTR9   544
    X76       CONSTR10  86
    X77       OBJ       1047
    X77       CONSTR1   779
    X77       CONSTR2   806
    X77       CONSTR3   575
    X77       CONSTR4   336
    X77       CONSTR5   271
    X77       CONSTR6   588
    X77       CONSTR7   855
    X77       CONSTR8   688
    X77       CONSTR9   645
    X77       CONSTR10  321
    X78       OBJ       659
    X78       CONSTR1   178
    X78       CONSTR2   763
    X78       CONSTR3   702
    X78       CONSTR4   212
    X78       CONSTR5   816
    X78       CONSTR6   917
    X78       CONSTR7   308
    X78       CONSTR8   479
    X78       CONSTR9   889
    X78       CONSTR10  896
    X79       OBJ       623
    X79       CONSTR1   714
    X79       CONSTR2   763
    X79       CONSTR3   560
    X79       CONSTR4   397
    X79       CONSTR5   709
    X79       CONSTR6   40
    X79       CONSTR7   91
    X79       CONSTR8   541
    X79       CONSTR9   806
    X79       CONSTR10  247
    X80       OBJ       723
    X80       CONSTR1   450
    X80       CONSTR2   850
    X80       CONSTR3   452
    X80       CONSTR4   14
    X80       CONSTR5   998
    X80       CONSTR6   118
    X80       CONSTR7   166
    X80       CONSTR8   525
    X80       CONSTR9   975
    X80       CONSTR10  749
    X81       OBJ       726
    X81       CONSTR1   768
    X81       CONSTR2   340
    X81       CONSTR3   887
    X81       CONSTR4   411
    X81       CONSTR5   750
    X81       CONSTR6   153
    X81       CONSTR7   310
    X81       CONSTR8   116
    X81       CONSTR9   491
    X81       CONSTR10  310
    X82       OBJ       570
    X82       CONSTR1   454
    X82       CONSTR2   178
    X82       CONSTR3   194
    X82       CONSTR4   968
    X82       CONSTR5   673
    X82       CONSTR6   576
    X82       CONSTR7   235
    X82       CONSTR8   26
    X82       CONSTR9   972
    X82       CONSTR10  849
    X83       OBJ       510
    X83       CONSTR1   37
    X83       CONSTR2   30
    X83       CONSTR3   87
    X83       CONSTR4   772
    X83       CONSTR5   887
    X83       CONSTR6   902
    X83       CONSTR7   725
    X83       CONSTR8   825
    X83       CONSTR9   90
    X83       CONSTR10  551
    X84       OBJ       666
    X84       CONSTR1   934
    X84       CONSTR2   204
    X84       CONSTR3   643
    X84       CONSTR4   812
    X84       CONSTR5   409
    X84       CONSTR6   696
    X84       CONSTR7   356
    X84       CONSTR8   689
    X84       CONSTR9   389
    X84       CONSTR10  550
    X85       OBJ       824
    X85       CONSTR1   796
    X85       CONSTR2   155
    X85       CONSTR3   735
    X85       CONSTR4   757
    X85       CONSTR5   257
    X85       CONSTR6   335
    X85       CONSTR7   136
    X85       CONSTR8   884
    X85       CONSTR9   205
    X85       CONSTR10  991
    X86       OBJ       498
    X86       CONSTR1   572
    X86       CONSTR2   69
    X86       CONSTR3   546
    X86       CONSTR4   263
    X86       CONSTR5   172
    X86       CONSTR6   254
    X86       CONSTR7   434
    X86       CONSTR8   558
    X86       CONSTR9   430
    X86       CONSTR10  8
    X87       OBJ       738
    X87       CONSTR1   909
    X87       CONSTR2   655
    X87       CONSTR3   666
    X87       CONSTR4   402
    X87       CONSTR5   471
    X87       CONSTR6   285
    X87       CONSTR7   784
    X87       CONSTR8   389
    X87       CONSTR9   183
    X87       CONSTR10  696
    X88       OBJ       663
    X88       CONSTR1   803
    X88       CONSTR2   269
    X88       CONSTR3   943
    X88       CONSTR4   879
    X88       CONSTR5   556
    X88       CONSTR6   69
    X88       CONSTR7   92
    X88       CONSTR8   5
    X88       CONSTR9   205
    X88       CONSTR10  452
    X89       OBJ       756
    X89       CONSTR1   885
    X89       CONSTR2   133
    X89       CONSTR3   279
    X89       CONSTR4   656
    X89       CONSTR5   705
    X89       CONSTR6   672
    X89       CONSTR7   222
    X89       CONSTR8   759
    X89       CONSTR9   583
    X89       CONSTR10  746
    X90       OBJ       653
    X90       CONSTR1   235
    X90       CONSTR2   807
    X90       CONSTR3   327
    X90       CONSTR4   114
    X90       CONSTR5   297
    X90       CONSTR6   537
    X90       CONSTR7   733
    X90       CONSTR8   625
    X90       CONSTR9   422
    X90       CONSTR10  55
    X91       OBJ       443
    X91       CONSTR1   556
    X91       CONSTR2   217
    X91       CONSTR3   263
    X91       CONSTR4   54
    X91       CONSTR5   703
    X91       CONSTR6   107
    X91       CONSTR7   694
    X91       CONSTR8   666
    X91       CONSTR9   116
    X91       CONSTR10  704
    X92       OBJ       983
    X92       CONSTR1   172
    X92       CONSTR2   846
    X92       CONSTR3   537
    X92       CONSTR4   682
    X92       CONSTR5   975
    X92       CONSTR6   943
    X92       CONSTR7   412
    X92       CONSTR8   978
    X92       CONSTR9   998
    X92       CONSTR10  614
    X93       OBJ       858
    X93       CONSTR1   714
    X93       CONSTR2   525
    X93       CONSTR3   62
    X93       CONSTR4   132
    X93       CONSTR5   310
    X93       CONSTR6   831
    X93       CONSTR7   75
    X93       CONSTR8   765
    X93       CONSTR9   677
    X93       CONSTR10  523
    X94       OBJ       529
    X94       CONSTR1   327
    X94       CONSTR2   673
    X94       CONSTR3   272
    X94       CONSTR4   220
    X94       CONSTR5   8
    X94       CONSTR6   283
    X94       CONSTR7   784
    X94       CONSTR8   479
    X94       CONSTR9   833
    X94       CONSTR10  86
    X95       OBJ       487
    X95       CONSTR1   816
    X95       CONSTR2   32
    X95       CONSTR3   635
    X95       CONSTR4   570
    X95       CONSTR5   946
    X95       CONSTR6   207
    X95       CONSTR7   431
    X95       CONSTR8   326
    X95       CONSTR9   117
    X95       CONSTR10  43
    X96       OBJ       614
    X96       CONSTR1   106
    X96       CONSTR2   135
    X96       CONSTR3   371
    X96       CONSTR4   290
    X96       CONSTR5   362
    X96       CONSTR6   475
    X96       CONSTR7   854
    X96       CONSTR8   950
    X96       CONSTR9   527
    X96       CONSTR10  66
    X97       OBJ       593
    X97       CONSTR1   79
    X97       CONSTR2   875
    X97       CONSTR3   473
    X97       CONSTR4   624
    X97       CONSTR5   343
    X97       CONSTR6   946
    X97       CONSTR7   56
    X97       CONSTR8   408
    X97       CONSTR9   840
    X97       CONSTR10  605
    X98       OBJ       862
    X98       CONSTR1   45
    X98       CONSTR2   767
    X98       CONSTR3   583
    X98       CONSTR4   837
    X98       CONSTR5   855
    X98       CONSTR6   277
    X98       CONSTR7   565
    X98       CONSTR8   358
    X98       CONSTR9   39
    X98       CONSTR10  173
    X99       OBJ       610
    X99       CONSTR1   148
    X99       CONSTR2   927
    X99       CONSTR3   358
    X99       CONSTR4   486
    X99       CONSTR5   238
    X99       CONSTR6   638
    X99       CONSTR7   821
    X99       CONSTR8   379
    X99       CONSTR9   876
    X99       CONSTR10  600
    X100      OBJ       672
    X100      CONSTR1   864
    X100      CONSTR2   46
    X100      CONSTR3   511
    X100      CONSTR4   758
    X100      CONSTR5   497
    X100      CONSTR6   872
    X100      CONSTR7   299
    X100      CONSTR8   493
    X100      CONSTR9   811
    X100      CONSTR10  195
    INT0001   'MARKER'  'INTEND'
RHS
    RHS10001  CONSTR1   11707
    RHS10001  CONSTR2   13635
    RHS10001  CONSTR3   12482
    RHS10001  CONSTR4   12083
    RHS10001  CONSTR5   13604
    RHS10001  CONSTR6   13138
    RHS10001  CONSTR7   11558
    RHS10001  CONSTR8   11625
    RHS10001  CONSTR9   13137
    RHS10001  CONSTR10  11240
BOUNDS
 BV BND       X1        .00
 BV BND       X2        .00
 BV BND       X3        .00
 BV BND       X4        .00
 BV BND       X5        .00
 BV BND       X6        .00
 BV BND       X7        .00
 BV BND       X8        .00
 BV BND       X9        .00
 BV BND       X10       .00
 BV BND       X11       .00
 BV BND       X12       .00
 BV BND       X13       .00
 BV BND       X14       .00
 BV BND       X15       .00
 BV BND       X16       .00
 BV BND       X17       .00
 BV BND       X18       .00
 BV BND       X19       .00
 BV BND       X20       .00
 BV BND       X21       .00
 BV BND       X22       .00
 BV BND       X23       .00
 BV BND       X24       .00
 BV BND       X25       .00
 BV BND       X26       .00
 BV BND       X27       .00
 BV BND       X28       .00
 BV BND       X29       .00
 BV BND       X30       .00
 BV BND       X31       .00
 BV BND       X32       .00
 BV BND       X33       .00
 BV BND       X34       .00
 BV BND       X35       .00
 BV BND       X36       .00
 BV BND       X37       .00
 BV BND       X38       .00
 BV BND       X39       .00
 BV BND       X40       .00
 BV BND       X41       .00
 BV BND       X42       .00
 BV BND       X43       .00
 BV BND       X44       .00
 BV BND       X45       .00
 BV BND       X46       .00
 BV BND       X47       .00
 BV BND       X48       .00
 BV BND       X49       .00
 BV BND       X50       .00
 BV BND       X51       .00
 BV BND       X52       .00
 BV BND       X53       .00
 BV BND       X54       .00
 BV BND       X55       .00
 BV BND       X56       .00
 BV BND       X57       .00
 BV BND       X58       .00
 BV BND       X59       .00
 BV BND       X60       .00
 BV BND       X61       .00
 BV BND       X62       .00
 BV BND       X63       .00
 BV BND       X64       .00
 BV BND       X65       .00
 BV BND       X66       .00
 BV BND       X67       .00
 BV BND       X68       .00
 BV BND       X69       .00
 BV BND       X70       .00
 BV BND       X71       .00
 BV BND       X72       .00
 BV BND       X73       .00
 BV BND       X74       .00
 BV BND       X75       .00
 BV BND       X76       .00
 BV BND       X77       .00
 BV BND       X78       .00
 BV BND       X79       .00
 BV BND       X80       .00
 BV BND       X81       .00
 BV BND       X82       .00
 BV BND       X83       .00
 BV BND       X84       .00
 BV BND       X85       .00
 BV BND       X86       .00
 BV BND       X87       .00
 BV BND       X88       .00
 BV BND       X89       .00
 BV BND       X90       .00
 BV BND       X91       .00
 BV BND       X92       .00
 BV BND       X93       .00
 BV BND       X94       .00
 BV BND       X95       .00
 BV BND       X96       .00
 BV BND       X97       .00
 BV BND       X98       .00
 BV BND       X99       .00
 BV BND       X100      .00
ENDATA
